nvertices = 17;
owners = [1,0,0,1,0,0,1,0,0,1,0,1,0,1,0,1,0];
colors = [2,1,2,2,1,2,2,1,2,2,4,3,4,3,4,3,4];
nedges = 36;
sources = [0,0,1,2,2,2,3,3,3,4,5,5,5,6,6,6,7,8,8,8,9,10,11,11,11,12,12,13,13,13,14,14,15,15,15,16];
targets = [1,2,2,0,3,11,2,4,5,5,3,6,13,5,7,8,8,6,9,15,8,11,10,12,2,11,13,12,14,5,13,15,14,16,8,15];
cost = [0,0,0,0,0,0,0,0,0,0,0,0,0,0,0,0,0,0,0,0,0,0,0,0,0,0,0,0,0,0,0,0,0,0,0,0];

